NAME : a280.tsp
COMMENT : Optimal tour for a280.tsp
TYPE : TOUR
DIMENSION : 280
Total Length: 2900.970676587906
TOUR_SECTION
1
2
280
3
279
278
4
5
6
7
9
8
10
11
12
13
15
14
24
23
25
22
26
27
28
29
32
33
34
36
35
39
38
37
50
51
52
49
53
48
47
54
55
46
45
44
59
58
57
56
68
69
67
70
71
72
73
74
66
64
63
62
40
41
42
43
60
61
118
117
115
116
86
65
85
84
87
113
114
111
112
88
83
82
81
89
109
110
107
174
173
106
105
108
104
103
92
91
90
80
79
76
75
77
78
95
96
97
94
93
98
99
100
101
102
169
170
171
172
168
167
166
188
189
190
191
192
193
179
180
176
181
182
183
184
185
186
187
165
164
163
162
161
175
160
159
158
157
119
120
121
122
123
124
125
30
31
126
154
155
153
156
152
151
177
178
150
149
139
138
137
266
140
265
264
263
262
261
270
269
268
267
136
135
134
133
132
131
130
129
127
128
21
20
19
18
17
16
271
272
273
274
275
276
277
260
259
258
257
256
255
254
252
209
210
211
214
215
218
219
217
216
213
212
207
208
253
206
205
204
203
202
196
201
200
144
143
142
141
148
147
146
145
199
198
197
194
195
220
221
222
223
224
225
226
227
228
229
230
251
231
232
233
234
235
236
237
238
239
240
241
242
243
244
245
246
247
250
248
249
-1
EOF
